# 3d Lennard-Jones gas
units lj
dimension 3
boundary p p p
atom_style atomic

include e_run_settings.in

lattice fcc ${density}
region simbox block 0 10 0 10 0 10
create_box 1 simbox
create_atoms 1 box



mass 1 1.0
velocity all create ${temp} 87287

pair_style lj/cut 3.0
pair_coeff 1 1 1.0 1.0 3.0


fix 1 all nve

thermo_style custom step temp etotal pe ke

timestep 0.005
thermo 100
run 10000 #stabilize system

compute ke all ke
compute pe all pe
compute press all pressure thermo_temp
variable etot equal c_ke+c_pe

variable Nevery equal 1 # interval of timesteps inclusion
variable Nrepeat equal 1000 # number of recent timesteps to include
variable Nfreq equal 1000 # calculate averages every this many timesteps

timestep 0.005
fix output_etotal all ave/time ${Nevery} ${Nrepeat} ${Nfreq} c_ke c_pe v_etot c_press file ${outfile}
#dump mydump all custom 10 1b.dump id type x y z vx vy vz


thermo 100
run 1000
